Translating instance to solver...

GLPSOL--GLPK LP/MIP Solver 5.0
Parameter(s) specified in the command line:
 --tmlim 28800 --mipgap 0.0 --write /tmp/tmpf4n3qtww.glpk.raw --wglp /tmp/tmpvk_ol_jx.glpk.glp
 --cpxlp /tmp/tmpieak0qw0.pyomo.lp
Reading problem data from '/tmp/tmpieak0qw0.pyomo.lp'...
/tmp/tmpieak0qw0.pyomo.lp:147311: warning: lower bound of variable 'x2' redefined
/tmp/tmpieak0qw0.pyomo.lp:147311: warning: upper bound of variable 'x2' redefined
24836 rows, 13712 columns, 58988 non-zeros
13712 integer variables, 13680 of which are binary
160991 lines were read
Writing problem data to '/tmp/tmpvk_ol_jx.glpk.glp'...
113432 lines were written
GLPK Integer Optimizer 5.0
24836 rows, 13712 columns, 58988 non-zeros
13712 integer variables, 13680 of which are binary
Preprocessing...
160 hidden packing inequaliti(es) were detected
3640 hidden covering inequaliti(es) were detected
100 constraint coefficient(s) were reduced
13913 rows, 5894 columns, 35315 non-zeros
5894 integer variables, 5863 of which are binary
Scaling...
 A: min|aij| =  1.000e+00  max|aij| =  3.100e+01  ratio =  3.100e+01
GM: min|aij| =  5.840e-01  max|aij| =  1.712e+00  ratio =  2.932e+00
EQ: min|aij| =  3.419e-01  max|aij| =  1.000e+00  ratio =  2.925e+00
2N: min|aij| =  2.500e-01  max|aij| =  1.625e+00  ratio =  6.500e+00
Constructing initial basis...
Size of triangular part is 13913
Solving LP relaxation...
GLPK Simplex Optimizer 5.0
13913 rows, 5894 columns, 35315 non-zeros
      0: obj =   0.000000000e+00 inf =   8.694e+01 (105)
    445: obj =   3.679455000e+00 inf =   1.610e-15 (0) 2
*  1225: obj =   1.140042870e+00 inf =   5.796e-14 (0) 4
OPTIMAL LP SOLUTION FOUND
Integer optimization begins...
Long-step dual simplex will be used
+  1225: mip =     not found yet >=              -inf        (1; 0)
+  1859: >>>>>   1.817673000e+00 >=   1.140042870e+00  37.3% (25; 0)
+  6528: mip =   1.817673000e+00 >=   1.151782000e+00  36.6% (76; 25)
+ 10465: mip =   1.817673000e+00 >=   1.156518842e+00  36.4% (122; 29)
+ 15088: mip =   1.817673000e+00 >=   1.161782000e+00  36.1% (211; 35)
+ 19025: mip =   1.817673000e+00 >=   1.161782000e+00  36.1% (254; 41)
+ 23796: mip =   1.817673000e+00 >=   1.167664353e+00  35.8% (291; 45)
+ 27572: mip =   1.817673000e+00 >=   1.167664353e+00  35.8% (342; 50)
+ 32842: mip =   1.817673000e+00 >=   1.170872909e+00  35.6% (398; 55)
+ 38076: mip =   1.817673000e+00 >=   1.174282000e+00  35.4% (459; 62)
+ 42321: mip =   1.817673000e+00 >=   1.180203053e+00  35.1% (514; 68)
+ 46672: mip =   1.817673000e+00 >=   1.181782000e+00  35.0% (603; 73)
+ 51756: mip =   1.817673000e+00 >=   1.181782000e+00  35.0% (663; 79)
Time used: 60.0 secs.  Memory used: 45.7 Mb.
+ 56542: mip =   1.817673000e+00 >=   1.186782000e+00  34.7% (716; 85)
+ 60448: mip =   1.817673000e+00 >=   1.187674857e+00  34.7% (770; 92)
+ 65394: mip =   1.817673000e+00 >=   1.190353429e+00  34.5% (839; 99)
+ 70306: mip =   1.817673000e+00 >=   1.190353429e+00  34.5% (902; 105)
+ 74519: mip =   1.817673000e+00 >=   1.190353429e+00  34.5% (968; 111)
+ 80042: mip =   1.817673000e+00 >=   1.194982000e+00  34.3% (1021; 118)
+ 84206: mip =   1.817673000e+00 >=   1.197733556e+00  34.1% (1088; 125)
+ 89313: mip =   1.817673000e+00 >=   1.198220567e+00  34.1% (1155; 132)
+ 93967: mip =   1.817673000e+00 >=   1.200243538e+00  34.0% (1242; 141)
+ 98864: mip =   1.817673000e+00 >=   1.203887263e+00  33.8% (1283; 148)
+105013: mip =   1.817673000e+00 >=   1.205891000e+00  33.7% (1334; 159)
+110372: mip =   1.817673000e+00 >=   1.209673717e+00  33.4% (1383; 168)
Time used: 120.0 secs.  Memory used: 68.8 Mb.
+116304: mip =   1.817673000e+00 >=   1.211782000e+00  33.3% (1428; 177)
+121946: mip =   1.817673000e+00 >=   1.211782000e+00  33.3% (1475; 184)
+125887: mip =   1.817673000e+00 >=   1.212960200e+00  33.3% (1522; 189)
+130535: mip =   1.817673000e+00 >=   1.214727500e+00  33.2% (1587; 198)
+136504: mip =   1.817673000e+00 >=   1.220066357e+00  32.9% (1648; 213)
+141176: mip =   1.817673000e+00 >=   1.220605529e+00  32.8% (1705; 218)
+146497: mip =   1.817673000e+00 >=   1.221185550e+00  32.8% (1752; 226)
+151088: mip =   1.817673000e+00 >=   1.222496286e+00  32.7% (1845; 235)
+155742: mip =   1.817673000e+00 >=   1.222496286e+00  32.7% (1901; 242)
+160293: mip =   1.817673000e+00 >=   1.223102755e+00  32.7% (1969; 250)
+165306: mip =   1.817673000e+00 >=   1.223743276e+00  32.7% (2058; 261)
+171245: mip =   1.817673000e+00 >=   1.225992333e+00  32.6% (2123; 272)
Time used: 180.0 secs.  Memory used: 89.6 Mb.
+176868: mip =   1.817673000e+00 >=   1.227571474e+00  32.5% (2186; 281)
+182099: mip =   1.817673000e+00 >=   1.228233237e+00  32.4% (2229; 288)
+186451: mip =   1.817673000e+00 >=   1.229545158e+00  32.4% (2282; 296)
+193037: mip =   1.817673000e+00 >=   1.230532000e+00  32.3% (2344; 306)
+198184: mip =   1.817673000e+00 >=   1.233210571e+00  32.2% (2417; 315)
+204253: mip =   1.817673000e+00 >=   1.234858923e+00  32.1% (2461; 328)
+209424: mip =   1.817673000e+00 >=   1.236576857e+00  32.0% (2512; 337)
+214812: mip =   1.817673000e+00 >=   1.236782000e+00  32.0% (2558; 345)
+220550: mip =   1.817673000e+00 >=   1.237868957e+00  31.9% (2610; 353)
+225704: mip =   1.817673000e+00 >=   1.241264263e+00  31.7% (2673; 363)
+230563: mip =   1.817673000e+00 >=   1.241782000e+00  31.7% (2742; 372)
+236029: mip =   1.817673000e+00 >=   1.244832847e+00  31.5% (2800; 384)
Time used: 240.0 secs.  Memory used: 113.9 Mb.
+240525: mip =   1.817673000e+00 >=   1.247076118e+00  31.4% (2852; 393)
+244966: mip =   1.817673000e+00 >=   1.247076118e+00  31.4% (2899; 399)
+248544: mip =   1.817673000e+00 >=   1.249282000e+00  31.3% (2976; 405)
+252272: mip =   1.817673000e+00 >=   1.249282000e+00  31.3% (3030; 412)
+256694: mip =   1.817673000e+00 >=   1.250243538e+00  31.2% (3094; 422)
+261464: mip =   1.817673000e+00 >=   1.251932050e+00  31.1% (3145; 433)
+265511: mip =   1.817673000e+00 >=   1.252963875e+00  31.1% (3199; 440)
+270331: mip =   1.817673000e+00 >=   1.253853093e+00  31.0% (3262; 451)
+275662: mip =   1.817673000e+00 >=   1.254639143e+00  31.0% (3314; 464)
+282060: mip =   1.817673000e+00 >=   1.255173000e+00  30.9% (3351; 473)
+287077: mip =   1.817673000e+00 >=   1.257434174e+00  30.8% (3409; 482)
+291649: mip =   1.817673000e+00 >=   1.258657000e+00  30.8% (3458; 490)
Time used: 300.1 secs.  Memory used: 133.0 Mb.
+295632: mip =   1.817673000e+00 >=   1.259858923e+00  30.7% (3503; 498)
+300009: mip =   1.817673000e+00 >=   1.261276130e+00  30.6% (3603; 505)
+304230: mip =   1.817673000e+00 >=   1.262182027e+00  30.6% (3660; 513)
+308628: mip =   1.817673000e+00 >=   1.263822816e+00  30.5% (3757; 521)
+314643: mip =   1.817673000e+00 >=   1.265007806e+00  30.4% (3799; 532)
+318239: mip =   1.817673000e+00 >=   1.265709333e+00  30.4% (3851; 539)
+322366: mip =   1.817673000e+00 >=   1.265970846e+00  30.4% (3915; 548)
+327362: mip =   1.817673000e+00 >=   1.266888985e+00  30.3% (3958; 556)
+331925: mip =   1.817673000e+00 >=   1.269045273e+00  30.2% (4004; 567)
+338089: mip =   1.817673000e+00 >=   1.269474308e+00  30.2% (4063; 578)
+342207: mip =   1.817673000e+00 >=   1.270807517e+00  30.1% (4120; 587)
+346946: mip =   1.817673000e+00 >=   1.271782000e+00  30.0% (4163; 603)
Time used: 360.1 secs.  Memory used: 151.8 Mb.
+352161: mip =   1.817673000e+00 >=   1.273546706e+00  29.9% (4237; 615)
+356573: mip =   1.817673000e+00 >=   1.273738522e+00  29.9% (4303; 623)
+360299: mip =   1.817673000e+00 >=   1.274939895e+00  29.9% (4398; 633)
+364199: mip =   1.817673000e+00 >=   1.275726632e+00  29.8% (4435; 641)
+369910: mip =   1.817673000e+00 >=   1.277328218e+00  29.7% (4490; 652)
+373270: mip =   1.817673000e+00 >=   1.278242312e+00  29.7% (4550; 660)
+377508: mip =   1.817673000e+00 >=   1.279963818e+00  29.6% (4615; 668)
+382270: mip =   1.817673000e+00 >=   1.280275571e+00  29.6% (4682; 679)
+386460: mip =   1.817673000e+00 >=   1.282024222e+00  29.5% (4738; 690)
+391235: mip =   1.817673000e+00 >=   1.282763833e+00  29.4% (4791; 698)
+396480: mip =   1.817673000e+00 >=   1.284765794e+00  29.3% (4834; 712)
+402188: mip =   1.817673000e+00 >=   1.286555105e+00  29.2% (4888; 731)
Time used: 420.2 secs.  Memory used: 169.5 Mb.
+407455: mip =   1.817673000e+00 >=   1.286782000e+00  29.2% (4939; 743)
+413144: mip =   1.817673000e+00 >=   1.286782000e+00  29.2% (4979; 754)
+418786: mip =   1.817673000e+00 >=   1.289847723e+00  29.0% (5054; 767)
+423764: >>>>>   1.673564000e+00 >=   1.291200250e+00  22.8% (5115; 778)
+428166: mip =   1.673564000e+00 >=   1.292333033e+00  22.8% (3752; 3379)
+433324: mip =   1.673564000e+00 >=   1.294363846e+00  22.7% (3789; 3398)
+438436: mip =   1.673564000e+00 >=   1.296564609e+00  22.5% (3831; 3414)
+442512: mip =   1.673564000e+00 >=   1.297888789e+00  22.4% (3877; 3427)
+447131: mip =   1.673564000e+00 >=   1.298734798e+00  22.4% (3906; 3438)
+452597: mip =   1.673564000e+00 >=   1.300017294e+00  22.3% (3949; 3458)
+457033: mip =   1.673564000e+00 >=   1.300942839e+00  22.3% (4004; 3469)
+462412: mip =   1.673564000e+00 >=   1.302292773e+00  22.2% (4050; 3485)
Time used: 480.2 secs.  Memory used: 176.6 Mb.
+467161: mip =   1.673564000e+00 >=   1.304186189e+00  22.1% (4097; 3500)
+471309: mip =   1.673564000e+00 >=   1.305629909e+00  22.0% (4137; 3513)
+475375: mip =   1.673564000e+00 >=   1.306899979e+00  21.9% (4189; 3529)
+480291: mip =   1.673564000e+00 >=   1.307854667e+00  21.9% (4247; 3542)
+485481: mip =   1.673564000e+00 >=   1.308462474e+00  21.8% (4294; 3555)
+489252: mip =   1.673564000e+00 >=   1.309282000e+00  21.8% (4348; 3567)
+493786: mip =   1.673564000e+00 >=   1.310318437e+00  21.7% (4388; 3580)
+499613: mip =   1.673564000e+00 >=   1.311867881e+00  21.6% (4432; 3599)
+504134: mip =   1.673564000e+00 >=   1.313745667e+00  21.5% (4479; 3611)
+508381: mip =   1.673564000e+00 >=   1.314907000e+00  21.4% (4520; 3623)
+513260: mip =   1.673564000e+00 >=   1.315709333e+00  21.4% (4573; 3638)
+517717: mip =   1.673564000e+00 >=   1.316691167e+00  21.3% (4613; 3651)
Time used: 540.2 secs.  Memory used: 177.2 Mb.
+522477: mip =   1.673564000e+00 >=   1.317068907e+00  21.3% (4654; 3672)
+528157: mip =   1.673564000e+00 >=   1.318924857e+00  21.2% (4692; 3696)
+533279: mip =   1.673564000e+00 >=   1.320042870e+00  21.1% (4727; 3710)
+537791: mip =   1.673564000e+00 >=   1.321195346e+00  21.1% (4781; 3724)
+542403: mip =   1.673564000e+00 >=   1.322868203e+00  21.0% (4814; 3740)
+548121: mip =   1.673564000e+00 >=   1.323982364e+00  20.9% (4870; 3759)
+553924: mip =   1.673564000e+00 >=   1.325074963e+00  20.8% (4921; 3774)
+558120: mip =   1.673564000e+00 >=   1.326487882e+00  20.7% (4957; 3791)
+563715: mip =   1.673564000e+00 >=   1.328448667e+00  20.6% (4989; 3813)
+568861: mip =   1.673564000e+00 >=   1.329436625e+00  20.6% (5022; 3832)
+573377: mip =   1.673564000e+00 >=   1.331257405e+00  20.5% (5068; 3849)
Time used: 600.3 secs.  Memory used: 196.1 Mb.
+579021: mip =   1.673564000e+00 >=   1.331782000e+00  20.4% (5113; 3867)
+584871: mip =   1.673564000e+00 >=   1.333709363e+00  20.3% (5152; 3890)
+589166: mip =   1.673564000e+00 >=   1.335000000e+00  20.2% (5192; 3901)
+594725: mip =   1.673564000e+00 >=   1.336674041e+00  20.1% (5255; 3922)
+599146: mip =   1.673564000e+00 >=   1.337673000e+00  20.1% (5293; 3938)
+603279: mip =   1.673564000e+00 >=   1.339548000e+00  20.0% (5340; 3954)
+607458: mip =   1.673564000e+00 >=   1.340353429e+00  19.9% (5371; 3973)
+612070: mip =   1.673564000e+00 >=   1.341453771e+00  19.8% (5414; 3987)
+617793: mip =   1.673564000e+00 >=   1.343373233e+00  19.7% (5449; 4013)
+620789: mip =   1.673564000e+00 >=   1.344142923e+00  19.7% (5493; 4024)
+626088: mip =   1.673564000e+00 >=   1.345823643e+00  19.6% (5529; 4042)
+631567: mip =   1.673564000e+00 >=   1.347340822e+00  19.5% (5558; 4063)
Time used: 660.3 secs.  Memory used: 213.6 Mb.
+635990: mip =   1.673564000e+00 >=   1.348678686e+00  19.4% (5596; 4080)
+639937: mip =   1.673564000e+00 >=   1.350000000e+00  19.3% (5673; 4098)
+645218: mip =   1.673564000e+00 >=   1.351601571e+00  19.2% (5710; 4119)
+650354: mip =   1.673564000e+00 >=   1.354191167e+00  19.1% (5745; 4137)
+654460: mip =   1.673564000e+00 >=   1.354927542e+00  19.0% (5796; 4155)
+659810: mip =   1.673564000e+00 >=   1.356797139e+00  18.9% (5841; 4182)
+665507: mip =   1.673564000e+00 >=   1.358394649e+00  18.8% (5866; 4201)
+670714: mip =   1.673564000e+00 >=   1.358931000e+00  18.8% (5894; 4223)
+675272: mip =   1.673564000e+00 >=   1.361782000e+00  18.6% (5922; 4249)
+680705: mip =   1.673564000e+00 >=   1.361790481e+00  18.6% (5961; 4264)
+685543: mip =   1.673564000e+00 >=   1.363908026e+00  18.5% (6001; 4284)
+690909: mip =   1.673564000e+00 >=   1.364741735e+00  18.5% (6045; 4305)
Time used: 720.3 secs.  Memory used: 231.6 Mb.
+695674: mip =   1.673564000e+00 >=   1.366774540e+00  18.3% (6073; 4329)
+698227: mip =   1.673564000e+00 >=   1.367673000e+00  18.3% (6141; 4460)
+702730: mip =   1.673564000e+00 >=   1.367673000e+00  18.3% (6188; 4596)
+708265: mip =   1.673564000e+00 >=   1.367673000e+00  18.3% (6239; 4732)
+711241: mip =   1.673564000e+00 >=   1.367673000e+00  18.3% (6310; 4841)
+714682: mip =   1.673564000e+00 >=   1.367673000e+00  18.3% (6336; 4997)
+718002: mip =   1.673564000e+00 >=   1.367673000e+00  18.3% (6379; 5161)
+722940: mip =   1.673564000e+00 >=   1.367673000e+00  18.3% (6407; 5240)
+729171: mip =   1.673564000e+00 >=   1.367673000e+00  18.3% (6450; 5279)
+734589: mip =   1.673564000e+00 >=   1.367673000e+00  18.3% (6489; 5308)
+740513: mip =   1.673564000e+00 >=   1.367673000e+00  18.3% (6539; 5344)
+745610: mip =   1.673564000e+00 >=   1.367673000e+00  18.3% (6568; 5368)
Time used: 780.4 secs.  Memory used: 246.2 Mb.
+750174: mip =   1.673564000e+00 >=   1.367673000e+00  18.3% (6602; 5391)
+754133: mip =   1.673564000e+00 >=   1.367673000e+00  18.3% (6640; 5408)
+759352: mip =   1.673564000e+00 >=   1.367673000e+00  18.3% (6660; 5432)
+763594: mip =   1.673564000e+00 >=   1.367673000e+00  18.3% (6689; 5456)
+768598: mip =   1.673564000e+00 >=   1.367673000e+00  18.3% (6723; 5480)
+773440: mip =   1.673564000e+00 >=   1.367673000e+00  18.3% (6750; 5503)
+777847: mip =   1.673564000e+00 >=   1.367673000e+00  18.3% (6783; 5530)
+782321: mip =   1.673564000e+00 >=   1.367673000e+00  18.3% (6814; 5558)
+785797: mip =   1.673564000e+00 >=   1.367673000e+00  18.3% (6861; 5577)
+788900: mip =   1.673564000e+00 >=   1.367673000e+00  18.3% (6885; 5587)
+792614: mip =   1.673564000e+00 >=   1.367673000e+00  18.3% (6916; 5603)
+797885: mip =   1.673564000e+00 >=   1.367673000e+00  18.3% (6952; 5622)
Time used: 840.4 secs.  Memory used: 260.8 Mb.
+803418: mip =   1.673564000e+00 >=   1.369676737e+00  18.2% (6985; 5642)
+807729: mip =   1.673564000e+00 >=   1.371005419e+00  18.1% (7030; 5667)
+811565: mip =   1.673564000e+00 >=   1.371261164e+00  18.1% (7067; 5682)
+815091: mip =   1.673564000e+00 >=   1.372740636e+00  18.0% (7131; 5703)
+819646: mip =   1.673564000e+00 >=   1.373320462e+00  17.9% (7175; 5721)
+824063: mip =   1.673564000e+00 >=   1.374625068e+00  17.9% (7212; 5739)
+828951: mip =   1.673564000e+00 >=   1.376509500e+00  17.7% (7237; 5763)
+833005: mip =   1.673564000e+00 >=   1.377118000e+00  17.7% (7287; 5781)
+839102: mip =   1.673564000e+00 >=   1.379281767e+00  17.6% (7314; 5815)
+843926: mip =   1.673564000e+00 >=   1.380685857e+00  17.5% (7373; 5835)
+847514: mip =   1.673564000e+00 >=   1.381738744e+00  17.4% (7392; 5968)
+852058: mip =   1.673564000e+00 >=   1.383356083e+00  17.3% (7420; 5993)
Time used: 900.4 secs.  Memory used: 276.1 Mb.
+855462: mip =   1.673564000e+00 >=   1.384893589e+00  17.2% (7464; 6007)
+859334: mip =   1.673564000e+00 >=   1.385735286e+00  17.2% (7494; 6028)
+864960: mip =   1.673564000e+00 >=   1.386520909e+00  17.2% (7522; 6053)
+869572: mip =   1.673564000e+00 >=   1.387407903e+00  17.1% (7519; 6189)
+876450: mip =   1.673564000e+00 >=   1.387407903e+00  17.1% (7568; 6370)
+879259: mip =   1.673564000e+00 >=   1.387407903e+00  17.1% (7609; 6609)
+882785: mip =   1.673564000e+00 >=   1.387407903e+00  17.1% (7677; 6830)
+886526: mip =   1.673564000e+00 >=   1.387407903e+00  17.1% (7772; 7069)
+888632: mip =   1.673564000e+00 >=   1.387407903e+00  17.1% (7788; 7649)
+893130: mip =   1.673564000e+00 >=   1.387407903e+00  17.1% (7802; 8044)
+897304: mip =   1.673564000e+00 >=   1.387407903e+00  17.1% (7731; 8508)
+899010: mip =   1.673564000e+00 >=   1.387407903e+00  17.1% (7677; 8893)
Time used: 960.4 secs.  Memory used: 293.7 Mb.
+900330: mip =   1.673564000e+00 >=   1.387407903e+00  17.1% (7692; 8956)
+901539: mip =   1.673564000e+00 >=   1.387407903e+00  17.1% (7711; 9004)
+903154: mip =   1.673564000e+00 >=   1.387407903e+00  17.1% (7713; 9100)
+904729: mip =   1.673564000e+00 >=   1.387407903e+00  17.1% (7744; 9132)
+906449: mip =   1.673564000e+00 >=   1.387407903e+00  17.1% (7772; 9169)
+907992: mip =   1.673564000e+00 >=   1.387407903e+00  17.1% (7796; 9212)
+909712: mip =   1.673564000e+00 >=   1.387407903e+00  17.1% (7824; 9249)
+911333: mip =   1.673564000e+00 >=   1.387407903e+00  17.1% (7847; 9295)
+912998: mip =   1.673564000e+00 >=   1.387407903e+00  17.1% (7873; 9335)
+914637: mip =   1.673564000e+00 >=   1.387407903e+00  17.1% (7886; 9398)
+915980: mip =   1.673564000e+00 >=   1.387407903e+00  17.1% (7906; 9456)
+917150: mip =   1.673564000e+00 >=   1.387407903e+00  17.1% (7921; 9510)
Time used: 1020.5 secs.  Memory used: 294.1 Mb.
+918816: mip =   1.673564000e+00 >=   1.387407903e+00  17.1% (7925; 9599)
+920336: mip =   1.673564000e+00 >=   1.387407903e+00  17.1% (7953; 9639)
+921903: mip =   1.673564000e+00 >=   1.387407903e+00  17.1% (7971; 9686)
+923635: mip =   1.673564000e+00 >=   1.387407903e+00  17.1% (7996; 9724)
+925408: mip =   1.673564000e+00 >=   1.387407903e+00  17.1% (8025; 9759)
+927162: mip =   1.673564000e+00 >=   1.387407903e+00  17.1% (8054; 9795)
+928870: mip =   1.673564000e+00 >=   1.387407903e+00  17.1% (8081; 9835)
+930363: mip =   1.673564000e+00 >=   1.387407903e+00  17.1% (8088; 9920)
+931364: mip =   1.673564000e+00 >=   1.387407903e+00  17.1% (8087; 10044)
+932245: mip =   1.673564000e+00 >=   1.387407903e+00  17.1% (8087; 10173)
+933274: mip =   1.673564000e+00 >=   1.387407903e+00  17.1% (8086; 10297)
+934374: mip =   1.673564000e+00 >=   1.387407903e+00  17.1% (7674; 11804)
Time used: 1080.5 secs.  Memory used: 294.7 Mb.
+935257: mip =   1.673564000e+00 >=   1.387407903e+00  17.1% (7688; 11882)
+936236: mip =   1.673564000e+00 >=   1.387407903e+00  17.1% (7700; 11962)
+937076: mip =   1.673564000e+00 >=   1.387407903e+00  17.1% (7715; 12043)
+937937: mip =   1.673564000e+00 >=   1.387407903e+00  17.1% (7697; 12215)
+938813: mip =   1.673564000e+00 >=   1.387407903e+00  17.1% (7711; 12298)
+939708: mip =   1.673564000e+00 >=   1.387407903e+00  17.1% (7710; 12426)
+940713: mip =   1.673564000e+00 >=   1.387407903e+00  17.1% (7742; 12461)
+941698: mip =   1.673564000e+00 >=   1.387407903e+00  17.1% (7702; 12701)
+942695: mip =   1.673564000e+00 >=   1.387407903e+00  17.1% (7735; 12735)
+943673: mip =   1.673564000e+00 >=   1.387407903e+00  17.1% (7764; 12778)
+944592: mip =   1.673564000e+00 >=   1.387407903e+00  17.1% (7712; 13049)
+945546: mip =   1.673564000e+00 >=   1.387407903e+00  17.1% (7722; 13143)
Time used: 1140.5 secs.  Memory used: 294.7 Mb.
+946425: mip =   1.673564000e+00 >=   1.387407903e+00  17.1% (7708; 13279)
+947039: mip =   1.673564000e+00 >=   1.387407903e+00  17.1% (7698; 13415)
+947941: mip =   1.673564000e+00 >=   1.387407903e+00  17.1% (7708; 13533)
+948887: mip =   1.673564000e+00 >=   1.387407903e+00  17.1% (7740; 13569)
+949737: mip =   1.673564000e+00 >=   1.387407903e+00  17.1% (7713; 13768)
+950683: mip =   1.673564000e+00 >=   1.387407903e+00  17.1% (7706; 13901)
+951604: mip =   1.673564000e+00 >=   1.387407903e+00  17.1% (7713; 14006)
+952298: mip =   1.673564000e+00 >=   1.387407903e+00  17.1% (7713; 14109)
+953191: mip =   1.673564000e+00 >=   1.387407903e+00  17.1% (7718; 14213)
+954109: mip =   1.673564000e+00 >=   1.387407903e+00  17.1% (7735; 14292)
+955126: mip =   1.673564000e+00 >=   1.387407903e+00  17.1% (7766; 14329)
+956106: mip =   1.673564000e+00 >=   1.387407903e+00  17.1% (7796; 14370)
Time used: 1200.5 secs.  Memory used: 294.7 Mb.
+957060: mip =   1.673564000e+00 >=   1.387407903e+00  17.1% (7712; 14732)
+958100: mip =   1.673564000e+00 >=   1.387407903e+00  17.1% (7709; 14848)
+958942: mip =   1.673564000e+00 >=   1.387407903e+00  17.1% (7709; 14983)
+959988: mip =   1.673564000e+00 >=   1.387407903e+00  17.1% (7711; 15091)
+960953: mip =   1.673564000e+00 >=   1.387407903e+00  17.1% (7715; 15204)
+961965: mip =   1.673564000e+00 >=   1.387407903e+00  17.1% (7718; 15313)
+963106: mip =   1.673564000e+00 >=   1.387407903e+00  17.1% (7732; 15383)
+964043: mip =   1.673564000e+00 >=   1.387407903e+00  17.1% (7746; 15463)
+964872: mip =   1.673564000e+00 >=   1.387407903e+00  17.1% (7743; 15589)
+965648: mip =   1.673564000e+00 >=   1.387407903e+00  17.1% (7721; 15748)
+966539: mip =   1.673564000e+00 >=   1.387407903e+00  17.1% (7731; 15878)
+967645: mip =   1.673564000e+00 >=   1.387407903e+00  17.1% (7718; 16024)
Time used: 1260.5 secs.  Memory used: 294.7 Mb.
+968583: mip =   1.673564000e+00 >=   1.387407903e+00  17.1% (7741; 16068)
+969561: mip =   1.673564000e+00 >=   1.387407903e+00  17.1% (7736; 16210)
+970600: mip =   1.673564000e+00 >=   1.387407903e+00  17.1% (7723; 16357)
+971622: mip =   1.673564000e+00 >=   1.387407903e+00  17.1% (7752; 16398)
+972576: mip =   1.673564000e+00 >=   1.387407903e+00  17.1% (7724; 16605)
+973521: mip =   1.673564000e+00 >=   1.387407903e+00  17.1% (7735; 16698)
+974558: mip =   1.673564000e+00 >=   1.387407903e+00  17.1% (7739; 16809)
+975510: mip =   1.673564000e+00 >=   1.387407903e+00  17.1% (7746; 16899)
+976400: mip =   1.673564000e+00 >=   1.387407903e+00  17.1% (7756; 16970)
+977726: mip =   1.673564000e+00 >=   1.387407903e+00  17.1% (7757; 17088)
+979454: mip =   1.673564000e+00 >=   1.387407903e+00  17.1% (7786; 17124)
Time used: 1320.5 secs.  Memory used: 294.7 Mb.
+980831: mip =   1.673564000e+00 >=   1.387407903e+00  17.1% (7797; 17209)
+981756: mip =   1.673564000e+00 >=   1.387407903e+00  17.1% (7745; 17494)
+982703: mip =   1.673564000e+00 >=   1.387407903e+00  17.1% (7735; 17618)
+983726: mip =   1.673564000e+00 >=   1.387407903e+00  17.1% (7733; 17748)
+984689: mip =   1.673564000e+00 >=   1.387407903e+00  17.1% (7754; 17795)
+985992: mip =   1.673564000e+00 >=   1.387407903e+00  17.1% (7745; 17941)
+986912: mip =   1.673564000e+00 >=   1.387407903e+00  17.1% (7755; 18022)
+987929: mip =   1.673564000e+00 >=   1.387407903e+00  17.1% (7787; 18057)
+988939: mip =   1.673564000e+00 >=   1.387407903e+00  17.1% (7818; 18094)
+989911: mip =   1.673564000e+00 >=   1.387407903e+00  17.1% (7848; 18135)
+991013: mip =   1.673564000e+00 >=   1.387407903e+00  17.1% (7762; 18501)
+991953: mip =   1.673564000e+00 >=   1.387407903e+00  17.1% (7792; 18541)
Time used: 1380.6 secs.  Memory used: 294.7 Mb.
+992837: mip =   1.673564000e+00 >=   1.387407903e+00  17.1% (7749; 18790)
+994512: mip =   1.673564000e+00 >=   1.387407903e+00  17.1% (7778; 18826)
+996102: mip =   1.673564000e+00 >=   1.387407903e+00  17.1% (7803; 18872)
+997122: mip =   1.673564000e+00 >=   1.387407903e+00  17.1% (7747; 19162)
+998378: mip =   1.673564000e+00 >=   1.387407903e+00  17.1% (7750; 19266)
+999676: mip =   1.673564000e+00 >=   1.387407903e+00  17.1% (7764; 19321)
+1001174: mip =   1.673564000e+00 >=   1.387407903e+00  17.1% (7794; 19355)
+1002671: mip =   1.673564000e+00 >=   1.387407903e+00  17.1% (7797; 19451)
+1004338: mip =   1.673564000e+00 >=   1.387407903e+00  17.1% (7826; 19485)
+1005941: mip =   1.673564000e+00 >=   1.387407903e+00  17.1% (7840; 19535)
+1007750: mip =   1.673564000e+00 >=   1.387407903e+00  17.1% (7868; 19572)
+1009525: mip =   1.673564000e+00 >=   1.387407903e+00  17.1% (7897; 19607)
Time used: 1440.6 secs.  Memory used: 294.7 Mb.
+1011223: mip =   1.673564000e+00 >=   1.387407903e+00  17.1% (7926; 19644)
+1012983: mip =   1.673564000e+00 >=   1.387407903e+00  17.1% (7938; 19719)
+1013989: mip =   1.673564000e+00 >=   1.387407903e+00  17.1% (7938; 19818)
+1014877: mip =   1.673564000e+00 >=   1.387407903e+00  17.1% (7832; 20119)
+1015603: mip =   1.673564000e+00 >=   1.387407903e+00  17.1% (7734; 20773)
+1016200: mip =   1.673564000e+00 >=   1.387407903e+00  17.1% (7736; 20878)
+1016802: mip =   1.673564000e+00 >=   1.387407903e+00  17.1% (7733; 21018)
+1017398: mip =   1.673564000e+00 >=   1.387407903e+00  17.1% (7732; 21134)
+1018003: mip =   1.673564000e+00 >=   1.387407903e+00  17.1% (7724; 21380)
+1018609: mip =   1.673564000e+00 >=   1.387407903e+00  17.1% (7724; 21520)
+1019230: mip =   1.673564000e+00 >=   1.387407903e+00  17.1% (7726; 21637)
+1019857: mip =   1.673564000e+00 >=   1.387407903e+00  17.1% (7726; 21796)
Time used: 1500.6 secs.  Memory used: 294.7 Mb.
+1020484: mip =   1.673564000e+00 >=   1.387407903e+00  17.1% (7724; 21951)
+1021176: mip =   1.673564000e+00 >=   1.387407903e+00  17.1% (7722; 22108)
+1022432: mip =   1.673564000e+00 >=   1.387407903e+00  17.1% (7721; 22227)
+1023031: mip =   1.673564000e+00 >=   1.387407903e+00  17.1% (7718; 22362)
+1023638: mip =   1.673564000e+00 >=   1.387407903e+00  17.1% (7717; 22516)
+1024666: mip =   1.673564000e+00 >=   1.387407903e+00  17.1% (7722; 22612)
+1025647: mip =   1.673564000e+00 >=   1.387407903e+00  17.1% (7720; 22736)
+1026363: mip =   1.673564000e+00 >=   1.387407903e+00  17.1% (7717; 22877)
+1026978: mip =   1.673564000e+00 >=   1.387407903e+00  17.1% (7707; 23112)
+1027581: mip =   1.673564000e+00 >=   1.387407903e+00  17.1% (7713; 23242)
+1028191: mip =   1.673564000e+00 >=   1.387407903e+00  17.1% (7704; 23406)
+1028830: mip =   1.673564000e+00 >=   1.387407903e+00  17.1% (7707; 23530)
Time used: 1560.6 secs.  Memory used: 294.7 Mb.
+1029463: mip =   1.673564000e+00 >=   1.387407903e+00  17.1% (7702; 23688)
+1030739: mip =   1.673564000e+00 >=   1.387407903e+00  17.1% (7696; 23858)
+1031703: mip =   1.673564000e+00 >=   1.387407903e+00  17.1% (7691; 23995)
+1032312: mip =   1.673564000e+00 >=   1.387407903e+00  17.1% (7692; 24113)
+1033151: mip =   1.673564000e+00 >=   1.387407903e+00  17.1% (7694; 24247)
+1034276: mip =   1.673564000e+00 >=   1.387407903e+00  17.1% (7701; 24357)
+1036016: mip =   1.673564000e+00 >=   1.387407903e+00  17.1% (7729; 24394)
+1037232: mip =   1.673564000e+00 >=   1.387407903e+00  17.1% (7691; 24638)
+1037841: mip =   1.673564000e+00 >=   1.387407903e+00  17.1% (7690; 24770)
+1038547: mip =   1.673564000e+00 >=   1.387407903e+00  17.1% (7688; 24911)
+1039430: mip =   1.673564000e+00 >=   1.387407903e+00  17.1% (7696; 25023)
+1040407: mip =   1.673564000e+00 >=   1.387407903e+00  17.1% (7687; 25175)
Time used: 1620.6 secs.  Memory used: 294.7 Mb.
+1041694: mip =   1.673564000e+00 >=   1.387407903e+00  17.1% (7686; 25287)
+1043082: mip =   1.673564000e+00 >=   1.387407903e+00  17.1% (7707; 25361)
+1044626: mip =   1.673564000e+00 >=   1.387407903e+00  17.1% (7696; 25513)
+1046116: mip =   1.673564000e+00 >=   1.387407903e+00  17.1% (7686; 25657)
+1047045: mip =   1.673564000e+00 >=   1.387407903e+00  17.1% (7689; 25797)
+1047750: mip =   1.673564000e+00 >=   1.387407903e+00  17.1% (7687; 25957)
+1048880: mip =   1.673564000e+00 >=   1.387407903e+00  17.1% (7688; 26064)
+1049472: mip =   1.673564000e+00 >=   1.387407903e+00  17.1% (7685; 26224)
+1050068: mip =   1.673564000e+00 >=   1.387407903e+00  17.1% (7680; 26396)
+1050641: mip =   1.673564000e+00 >=   1.387407903e+00  17.1% (7681; 26516)
+1051267: mip =   1.673564000e+00 >=   1.387407903e+00  17.1% (7680; 26660)
+1051839: mip =   1.673564000e+00 >=   1.387407903e+00  17.1% (7678; 26806)
Time used: 1680.6 secs.  Memory used: 294.7 Mb.
+1052403: mip =   1.673564000e+00 >=   1.387407903e+00  17.1% (7679; 26947)
+1052974: mip =   1.673564000e+00 >=   1.387407903e+00  17.1% (7679; 27119)
+1053896: mip =   1.673564000e+00 >=   1.387407903e+00  17.1% (7674; 27274)
+1054568: mip =   1.673564000e+00 >=   1.387407903e+00  17.1% (7677; 27387)
+1055183: mip =   1.673564000e+00 >=   1.387407903e+00  17.1% (7673; 27573)
+1055820: mip =   1.673564000e+00 >=   1.387407903e+00  17.1% (7672; 27739)
+1056753: mip =   1.673564000e+00 >=   1.387407903e+00  17.1% (7674; 27844)
+1057365: mip =   1.673564000e+00 >=   1.387407903e+00  17.1% (7673; 27975)
+1058087: mip =   1.673564000e+00 >=   1.387407903e+00  17.1% (7681; 28111)
+1058936: mip =   1.673564000e+00 >=   1.387407903e+00  17.1% (7670; 28279)
+1059613: mip =   1.673564000e+00 >=   1.387407903e+00  17.1% (7669; 28436)
+1060247: mip =   1.673564000e+00 >=   1.387407903e+00  17.1% (7666; 28637)
Time used: 1740.7 secs.  Memory used: 294.7 Mb.
+1060886: mip =   1.673564000e+00 >=   1.387407903e+00  17.1% (7668; 28776)
+1061491: mip =   1.673564000e+00 >=   1.387407903e+00  17.1% (7668; 28908)
+1062240: mip =   1.673564000e+00 >=   1.387407903e+00  17.1% (7675; 29021)
+1063535: mip =   1.673564000e+00 >=   1.387407903e+00  17.1% (7680; 29127)
+1064920: mip =   1.673564000e+00 >=   1.387407903e+00  17.1% (7686; 29231)
+1066299: mip =   1.673564000e+00 >=   1.387407903e+00  17.1% (7664; 29465)
+1067201: mip =   1.673564000e+00 >=   1.387407903e+00  17.1% (7664; 29606)
+1067933: mip =   1.673564000e+00 >=   1.387407903e+00  17.1% (7661; 29798)
+1068574: mip =   1.673564000e+00 >=   1.387407903e+00  17.1% (7666; 29932)
+1069221: mip =   1.673564000e+00 >=   1.387407903e+00  17.1% (7660; 30099)
+1070582: mip =   1.673564000e+00 >=   1.387407903e+00  17.1% (7661; 30216)
+1071651: mip =   1.673564000e+00 >=   1.387407903e+00  17.1% (7659; 30383)
Time used: 1800.7 secs.  Memory used: 294.7 Mb.
+1072259: mip =   1.673564000e+00 >=   1.387407903e+00  17.1% (7658; 30503)
+1073211: mip =   1.673564000e+00 >=   1.387407903e+00  17.1% (7649; 30677)
+1074661: mip =   1.673564000e+00 >=   1.387407903e+00  17.1% (7621; 31083)
+1079739: mip =   1.673564000e+00 >=   1.388274538e+00  17.0% (7624; 31293)
+1084444: mip =   1.673564000e+00 >=   1.389522357e+00  17.0% (7655; 31329)
+1089506: mip =   1.673564000e+00 >=   1.390920400e+00  16.9% (7673; 31358)
+1094027: mip =   1.673564000e+00 >=   1.391796974e+00  16.8% (7648; 31478)
+1099185: mip =   1.673564000e+00 >=   1.393163917e+00  16.8% (7676; 31522)
+1103205: mip =   1.673564000e+00 >=   1.394131615e+00  16.7% (7706; 31566)
+1107063: mip =   1.673564000e+00 >=   1.394777118e+00  16.7% (7737; 31589)
+1112062: mip =   1.673564000e+00 >=   1.395798000e+00  16.6% (7756; 31621)
+1118992: mip =   1.673564000e+00 >=   1.397695708e+00  16.5% (7769; 31689)
Time used: 1860.7 secs.  Memory used: 303.6 Mb.
+1122966: mip =   1.673564000e+00 >=   1.398637018e+00  16.4% (7804; 31707)
+1127242: mip =   1.673564000e+00 >=   1.399282000e+00  16.4% (7821; 31727)
+1132576: mip =   1.673564000e+00 >=   1.400987861e+00  16.3% (7844; 31752)
+1137755: mip =   1.673564000e+00 >=   1.401763301e+00  16.2% (7868; 31776)
+1143001: mip =   1.673564000e+00 >=   1.403700250e+00  16.1% (7871; 31812)
+1146852: mip =   1.673564000e+00 >=   1.404379920e+00  16.1% (7908; 31830)
+1150570: mip =   1.673564000e+00 >=   1.405238561e+00  16.0% (7919; 31846)
+1154805: >>>>>   1.511782000e+00 >=   1.405909375e+00   7.0% (7945; 31863)
+1160274: mip =   1.511782000e+00 >=   1.408458566e+00   6.8% (2935; 42201)
+1164829: mip =   1.511782000e+00 >=   1.410654769e+00   6.7% (2913; 42276)
+1169453: mip =   1.511782000e+00 >=   1.412707062e+00   6.6% (2896; 42348)
+1173589: mip =   1.511782000e+00 >=   1.415125181e+00   6.4% (2888; 42409)
Time used: 1920.8 secs.  Memory used: 312.0 Mb.
+1179098: mip =   1.511782000e+00 >=   1.417673000e+00   6.2% (2857; 42501)
+1184009: mip =   1.511782000e+00 >=   1.418654833e+00   6.2% (2844; 42593)
+1188500: mip =   1.511782000e+00 >=   1.418654833e+00   6.2% (2836; 42672)
+1192372: mip =   1.511782000e+00 >=   1.420439000e+00   6.0% (2830; 42718)
+1197848: mip =   1.511782000e+00 >=   1.423923000e+00   5.8% (2775; 42841)
+1203212: mip =   1.511782000e+00 >=   1.427535710e+00   5.6% (2690; 43009)
+1208582: mip =   1.511782000e+00 >=   1.430173000e+00   5.4% (2649; 43158)
+1214236: mip =   1.511782000e+00 >=   1.435173000e+00   5.1% (2566; 43366)
+1219189: mip =   1.511782000e+00 >=   1.438361650e+00   4.9% (2269; 44456)
+1224434: mip =   1.511782000e+00 >=   1.442673000e+00   4.6% (2195; 44634)
+1229221: mip =   1.511782000e+00 >=   1.444145750e+00   4.5% (2134; 44803)
+1235669: mip =   1.511782000e+00 >=   1.449090145e+00   4.1% (2029; 45095)
Time used: 1980.8 secs.  Memory used: 312.0 Mb.
+1240740: mip =   1.511782000e+00 >=   1.454727500e+00   3.8% (1938; 45290)
+1245902: mip =   1.511782000e+00 >=   1.456891208e+00   3.6% (1865; 45481)
+1251396: mip =   1.511782000e+00 >=   1.461793308e+00   3.3% (1740; 45773)
+1256336: mip =   1.511782000e+00 >=   1.467673000e+00   2.9% (1570; 46255)
+1262388: mip =   1.511782000e+00 >=   1.469636667e+00   2.8% (1433; 46660)
+1266000: mip =   1.511782000e+00 >=   1.469636667e+00   2.8% (1379; 46833)
+1270482: mip =   1.511782000e+00 >=   1.475937952e+00   2.4% (1248; 47221)
+1275726: mip =   1.511782000e+00 >=   1.482382125e+00   1.9% (1037; 47959)
+1281087: mip =   1.511782000e+00 >=   1.490029400e+00   1.4% (804; 48741)
+1285607: mip =   1.511782000e+00 >=   1.493976381e+00   1.2% (605; 49586)
+1290454: mip =   1.511782000e+00 >=   1.506537929e+00   0.3% (184; 51920)
+1291835: mip =   1.511782000e+00 >=     tree is empty   0.0% (0; 53355)
INTEGER OPTIMAL SOLUTION FOUND
Time used:   2037.1 secs
Memory used: 315.6 Mb (330964074 bytes)
Writing MIP solution to '/tmp/tmpf4n3qtww.glpk.raw'...
38557 lines were written

Time in solver (for this epsilon): 2037.200624704361 s
Elapsed time (for this epsilon): 2037.7369980812073 s


Total elapsed time since execution of first epsilon: 3826.5126779079437 s

Results:

E = 1.511782 mA
C = 64.0 points
C ~= 25.6 km^2

Minimum Epsilon for this instance = 10
Maximum Epsilon for this instance = 100

Current Epsilon = 60


Instance Epsilon Preprocessing Time: 0.0032808780670166016 s


Updated solution vectors:
sol_E = [-0.611782,-1.061782,-1.061782,-1.061782,-1.061782,-1.511782]
sol_C = [14.0,20.0,30.0,45.0,52.0,64.0]
sol_eps = [10,20,30,40,50,60]
sol_gap = [0.0,0.0,0.0,0.0,0.0,0.0]
